6,6,57
2,0,0,1
0,0,1,4
1,0,16,22
3,0,22,29
5,0,29,32
4,0,32,38
1,1,0,8
2,1,8,13
4,1,13,23
5,1,32,42
0,1,42,52
3,1,52,56
2,2,1,6
3,2,6,10
5,2,10,18
0,2,18,27
1,2,27,28
4,2,50,57
1,3,8,13
0,3,13,18
2,3,22,27
3,3,29,32
4,3,38,46
5,3,46,55
2,4,13,22
1,4,22,25
4,4,25,30
5,4,42,46
0,4,52,55
3,4,56,57
1,5,13,16
3,5,16,19
5,5,19,28
0,5,28,38
4,5,46,50
2,5,50,51
